data;

param num_top:=3;

#nodes and edges of the physical network
param n := 10;

set E := (1,2) (1,3) (1,7) (2,4) (2,7) (3,5) (4,8) (5,6) (5,7) (6,7) (6,9) (7,8) (7,9) (8,10) (9,10) ;

#nodes and edges of the virtual networks
set Nl[1] := 6 1 4 9 10 ;
set Nl[2] := 1 4 3 6 8 ;
set Nl[3] := 6 7 9 8 5 ;

set El[1] := (1,6) (1,4) (4,9) (9,10) (6,10) (4,10) (1,9) (4,6) (1,10) (6,9) ;
set El[2] := (1,4) (3,4) (3,6) (6,8) (1,8) (1,6) (4,8) (3,8) (1,3) (4,6) ;
set El[3] := (6,7) (7,9) (8,9) (5,8) (5,6) (7,8) (6,9) (5,9) (6,8) (5,7) ;
